unsat
(define-fun q1 () Bool false)
(define-fun q2 () Bool true)
(define-fun g1 ((x Obj)) Bool (labelOf x sink))
(define-fun g2 ((x Obj)) Bool (labelOf x sink))
(define-fun f ((x1 Obj) (x2 Obj)) Bool (= x2 x1))
(define-fun c1 () Bool false)
(define-fun c2 () Bool false)
(define-fun c3 () Bool true)
206.29user 7.64system 3:33.94elapsed 99%CPU (0avgtext+0avgdata 141040maxresident)k
0inputs+0outputs (0major+32019minor)pagefaults 0swaps
kitchen_abc-1.12.2d
